NAME : 10_3_3_2_(46).dat
COMMENT : Henke, Speranza, Wäscher, 2015
TYPE : MCVRP
DIMENSION : 11
EDGE_WEIGHT_TYPE : DISTANCE_MATRIX
CAPACITY : 1000
VEHICLES : 2
PRODUCT TYPES : 3
COMPARTMENTS : 3
NODE_COORD_SECTION
1 50 50
2 42.86 99.97
3 41.39 57.13
4 76.19 31.52
5 17.62 36.49
6 11.88 67.46
7 60.1 26.25
8 97.18 58.55
9 79.79 1.74
10 26.74 39.71
11 25.53 8.71
DEMAND_SECTION
1 0 0 0
2 62 76 0
3 120 113 0
4 125 40 0
5 58 17 0
6 2 12 0
7 25 0 32
8 143 0 69
9 179 0 65
10 0 94 65
11 0 76 53
DEPOT_SECTION
1
EOF